&CONTROL
  calculation='nscf'
  prefix='CuO'
  pseudo_dir='.'
  outdir="."
  
/
&SYSTEM
   ntyp             = 3
   nat              = 4
   ibrav            = 0
   nbnd             = 5

   ecutwfc          = 40
   occupations='smearing'
   degauss=0.005
   
   !Spin-polarised
   nspin = 2
   starting_magnetization(1) = 1
   starting_magnetization(2) = -1
   starting_magnetization(3) = 0

/
&ELECTRONS
/
&IONS
/
&CELL
/

ATOMIC_SPECIES
Cu 63.546 cu_pbe_v1.2.uspp.F.UPF
Cu1 63.546 cu_pbe_v1.2.uspp.F.UPF
O 15.999 o_pbe_v1.2.uspp.F.UPF

CELL_PARAMETERS angstrom
2.34185000000000 -1.71130000000000 0.00000000000000
2.34185000000000 1.71130000000000 0.00000000000000
-0.85002742676086 0.00000000000000 5.05786939469124

ATOMIC_POSITIONS angstrom
Cu 1.1709250000 0.8556500000 0.0000000000 
Cu1 0.7459112866 -0.8556500000 2.5289346973 
O 2.1293431433 -0.2792841600 1.2644673487 
O 1.7043294299 0.2792841600 3.7934020460 

KPOINTS crystal
0.0 0.0 0.0 1
0.0 0.0 0.041666666666666664 2
0.0 0.0 0.08333333333333333 3
0.0 0.0 0.125 4
0.0 0.0 0.16666666666666666 5
0.0 0.0 0.20833333333333331 6
0.0 0.0 0.25 7
0.0 0.0 0.29166666666666663 8
0.0 0.0 0.3333333333333333 9
0.0 0.0 0.375 10
0.0 0.0 0.41666666666666663 11
0.0 0.0 0.4583333333333333 12
0.0 0.0 0.5 13
0.0 0.021739130434782608 0.5 14
0.0 0.043478260869565216 0.5 15
0.0 0.06521739130434782 0.5 16
0.0 0.08695652173913043 0.5 17
0.0 0.10869565217391304 0.5 18
0.0 0.13043478260869565 0.5 19
0.0 0.15217391304347827 0.5 20
0.0 0.17391304347826086 0.5 21
0.0 0.19565217391304346 0.5 22
0.0 0.21739130434782608 0.5 23
0.0 0.2391304347826087 0.5 24
0.0 0.2608695652173913 0.5 25
0.0 0.2826086956521739 0.5 26
0.0 0.30434782608695654 0.5 27
0.0 0.32608695652173914 0.5 28
0.0 0.34782608695652173 0.5 29
0.0 0.3695652173913043 0.5 30
0.0 0.3913043478260869 0.5 31
0.0 0.41304347826086957 0.5 32
0.0 0.43478260869565216 0.5 33
0.0 0.45652173913043476 0.5 34
0.0 0.4782608695652174 0.5 35
0.0 0.5 0.5 36
0.0 0.5 0.4583333333333333 37
0.0 0.5 0.4166666666666667 38
0.0 0.5 0.375 39
0.0 0.5 0.33333333333333337 40
0.0 0.5 0.2916666666666667 41
0.0 0.5 0.25 42
0.0 0.5 0.20833333333333337 43
0.0 0.5 0.16666666666666669 44
0.0 0.5 0.125 45
0.0 0.5 0.08333333333333337 46
0.0 0.5 0.041666666666666685 47
0.0 0.5 0.0 48
0.0 0.4782608695652174 0.0 49
0.0 0.4565217391304348 0.0 50
0.0 0.43478260869565216 0.0 51
0.0 0.41304347826086957 0.0 52
0.0 0.391304347826087 0.0 53
0.0 0.3695652173913043 0.0 54
0.0 0.34782608695652173 0.0 55
0.0 0.32608695652173914 0.0 56
0.0 0.30434782608695654 0.0 57
0.0 0.28260869565217395 0.0 58
0.0 0.2608695652173913 0.0 59
0.0 0.2391304347826087 0.0 60
0.0 0.2173913043478261 0.0 61
0.0 0.19565217391304346 0.0 62
0.0 0.17391304347826086 0.0 63
0.0 0.15217391304347827 0.0 64
0.0 0.13043478260869568 0.0 65
0.0 0.10869565217391308 0.0 66
0.0 0.08695652173913043 0.0 67
0.0 0.06521739130434784 0.0 68
0.0 0.043478260869565244 0.0 69
0.0 0.021739130434782594 0.0 70
0.0 0.0 0.0 71
-0.021739130434782608 0.0 0.0 72
-0.043478260869565216 0.0 0.0 73
-0.06521739130434782 0.0 0.0 74
-0.08695652173913043 0.0 0.0 75
-0.10869565217391304 0.0 0.0 76
-0.13043478260869565 0.0 0.0 77
-0.15217391304347827 0.0 0.0 78
-0.17391304347826086 0.0 0.0 79
-0.19565217391304346 0.0 0.0 80
-0.21739130434782608 0.0 0.0 81
-0.2391304347826087 0.0 0.0 82
-0.2608695652173913 0.0 0.0 83
-0.2826086956521739 0.0 0.0 84
-0.30434782608695654 0.0 0.0 85
-0.32608695652173914 0.0 0.0 86
-0.34782608695652173 0.0 0.0 87
-0.3695652173913043 0.0 0.0 88
-0.3913043478260869 0.0 0.0 89
-0.41304347826086957 0.0 0.0 90
-0.43478260869565216 0.0 0.0 91
-0.45652173913043476 0.0 0.0 92
-0.4782608695652174 0.0 0.0 93
-0.5 0.0 0.0 94
-0.5 0.0 0.041666666666666664 95
-0.5 0.0 0.08333333333333333 96
-0.5 0.0 0.125 97
-0.5 0.0 0.16666666666666666 98
-0.5 0.0 0.20833333333333331 99
-0.5 0.0 0.25 100
-0.5 0.0 0.29166666666666663 101
-0.5 0.0 0.3333333333333333 102
-0.5 0.0 0.375 103
-0.5 0.0 0.41666666666666663 104
-0.5 0.0 0.4583333333333333 105
-0.5 0.0 0.5 106
-0.48214285714285715 0.017857142857142856 0.48214285714285715 107
-0.4642857142857143 0.03571428571428571 0.4642857142857143 108
-0.44642857142857145 0.05357142857142857 0.44642857142857145 109
-0.4285714285714286 0.07142857142857142 0.4285714285714286 110
-0.4107142857142857 0.08928571428571427 0.4107142857142857 111
-0.39285714285714285 0.10714285714285714 0.39285714285714285 112
-0.375 0.125 0.375 113
-0.35714285714285715 0.14285714285714285 0.35714285714285715 114
-0.3392857142857143 0.1607142857142857 0.3392857142857143 115
-0.32142857142857145 0.17857142857142855 0.32142857142857145 116
-0.3035714285714286 0.19642857142857142 0.3035714285714286 117
-0.2857142857142857 0.21428571428571427 0.2857142857142857 118
-0.2678571428571429 0.23214285714285712 0.2678571428571429 119
-0.25 0.25 0.25 120
-0.23214285714285715 0.26785714285714285 0.23214285714285715 121
-0.2142857142857143 0.2857142857142857 0.2142857142857143 122
-0.19642857142857145 0.30357142857142855 0.19642857142857145 123
-0.1785714285714286 0.3214285714285714 0.1785714285714286 124
-0.16071428571428575 0.33928571428571425 0.16071428571428575 125
-0.1428571428571429 0.3571428571428571 0.1428571428571429 126
-0.125 0.375 0.125 127
-0.10714285714285715 0.39285714285714285 0.10714285714285715 128
-0.0892857142857143 0.4107142857142857 0.0892857142857143 129
-0.07142857142857145 0.42857142857142855 0.07142857142857145 130
-0.0535714285714286 0.4464285714285714 0.0535714285714286 131
-0.035714285714285754 0.46428571428571425 0.035714285714285754 132
-0.017857142857142905 0.4821428571428571 0.017857142857142905 133
0.0 0.5 0.0 134
0.021739130434782608 0.5 0.0 135
0.043478260869565216 0.5 0.0 136
0.06521739130434782 0.5 0.0 137
0.08695652173913043 0.5 0.0 138
0.10869565217391304 0.5 0.0 139
0.13043478260869565 0.5 0.0 140
0.15217391304347827 0.5 0.0 141
0.17391304347826086 0.5 0.0 142
0.19565217391304346 0.5 0.0 143
0.21739130434782608 0.5 0.0 144
0.2391304347826087 0.5 0.0 145
0.2608695652173913 0.5 0.0 146
0.2826086956521739 0.5 0.0 147
0.30434782608695654 0.5 0.0 148
0.32608695652173914 0.5 0.0 149
0.34782608695652173 0.5 0.0 150
0.3695652173913043 0.5 0.0 151
0.3913043478260869 0.5 0.0 152
0.41304347826086957 0.5 0.0 153
0.43478260869565216 0.5 0.0 154
0.45652173913043476 0.5 0.0 155
0.4782608695652174 0.5 0.0 156
0.5 0.5 0.0 157
0.4814814814814815 0.4814814814814815 0.0 158
0.46296296296296297 0.46296296296296297 0.0 159
0.4444444444444444 0.4444444444444444 0.0 160
0.42592592592592593 0.42592592592592593 0.0 161
0.40740740740740744 0.40740740740740744 0.0 162
0.3888888888888889 0.3888888888888889 0.0 163
0.37037037037037035 0.37037037037037035 0.0 164
0.35185185185185186 0.35185185185185186 0.0 165
0.33333333333333337 0.33333333333333337 0.0 166
0.3148148148148148 0.3148148148148148 0.0 167
0.2962962962962963 0.2962962962962963 0.0 168
0.2777777777777778 0.2777777777777778 0.0 169
0.2592592592592593 0.2592592592592593 0.0 170
0.24074074074074076 0.24074074074074076 0.0 171
0.2222222222222222 0.2222222222222222 0.0 172
0.20370370370370372 0.20370370370370372 0.0 173
0.18518518518518523 0.18518518518518523 0.0 174
0.16666666666666669 0.16666666666666669 0.0 175
0.14814814814814814 0.14814814814814814 0.0 176
0.12962962962962965 0.12962962962962965 0.0 177
0.11111111111111116 0.11111111111111116 0.0 178
0.09259259259259262 0.09259259259259262 0.0 179
0.07407407407407407 0.07407407407407407 0.0 180
0.05555555555555558 0.05555555555555558 0.0 181
0.03703703703703709 0.03703703703703709 0.0 182
0.018518518518518545 0.018518518518518545 0.0 183
0.0 0.0 0.0 184
-0.01282051282051282 0.01282051282051282 0.01282051282051282 185
-0.02564102564102564 0.02564102564102564 0.02564102564102564 186
-0.038461538461538464 0.038461538461538464 0.038461538461538464 187
-0.05128205128205128 0.05128205128205128 0.05128205128205128 188
-0.0641025641025641 0.0641025641025641 0.0641025641025641 189
-0.07692307692307693 0.07692307692307693 0.07692307692307693 190
-0.08974358974358974 0.08974358974358974 0.08974358974358974 191
-0.10256410256410256 0.10256410256410256 0.10256410256410256 192
-0.11538461538461538 0.11538461538461538 0.11538461538461538 193
-0.1282051282051282 0.1282051282051282 0.1282051282051282 194
-0.14102564102564102 0.14102564102564102 0.14102564102564102 195
-0.15384615384615385 0.15384615384615385 0.15384615384615385 196
-0.16666666666666666 0.16666666666666666 0.16666666666666666 197
-0.1794871794871795 0.1794871794871795 0.1794871794871795 198
-0.1923076923076923 0.1923076923076923 0.1923076923076923 199
-0.20512820512820512 0.20512820512820512 0.20512820512820512 200
-0.21794871794871795 0.21794871794871795 0.21794871794871795 201
-0.23076923076923075 0.23076923076923075 0.23076923076923075 202
-0.24358974358974358 0.24358974358974358 0.24358974358974358 203
-0.2564102564102564 0.2564102564102564 0.2564102564102564 204
-0.2692307692307692 0.2692307692307692 0.2692307692307692 205
-0.28205128205128205 0.28205128205128205 0.28205128205128205 206
-0.2948717948717949 0.2948717948717949 0.2948717948717949 207
-0.3076923076923077 0.3076923076923077 0.3076923076923077 208
-0.3205128205128205 0.3205128205128205 0.3205128205128205 209
-0.3333333333333333 0.3333333333333333 0.3333333333333333 210
-0.34615384615384615 0.34615384615384615 0.34615384615384615 211
-0.358974358974359 0.358974358974359 0.358974358974359 212
-0.3717948717948718 0.3717948717948718 0.3717948717948718 213
-0.3846153846153846 0.3846153846153846 0.3846153846153846 214
-0.3974358974358974 0.3974358974358974 0.3974358974358974 215
-0.41025641025641024 0.41025641025641024 0.41025641025641024 216
-0.4230769230769231 0.4230769230769231 0.4230769230769231 217
-0.4358974358974359 0.4358974358974359 0.4358974358974359 218
-0.4487179487179487 0.4487179487179487 0.4487179487179487 219
-0.4615384615384615 0.4615384615384615 0.4615384615384615 220
-0.47435897435897434 0.47435897435897434 0.47435897435897434 221
-0.48717948717948717 0.48717948717948717 0.48717948717948717 222
