# CELL file written 17:35:46 (GMT-0.0) 8th December 2020 from run La2CuO4_LTO

%BLOCK lattice_cart
   ANG
       2.66730000000000        0.00000000000000       -6.55860000000000    
       0.00000000000000        5.41480000000000        0.00000000000000    
       2.66730000000000        0.00000000000000        6.55860000000000    
%ENDBLOCK lattice_cart

%BLOCK cell_constraints
      1   2   1
      0   5   0
%ENDBLOCK cell_constraints

%BLOCK positions_frac
   O              0.258400000000000       0.250000000000000       0.241600000000000
   O              0.741600000000000       0.750000000000000       0.758400000000000
   O              0.758400000000000       0.250000000000000       0.741600000000000
   O              0.241600000000000       0.750000000000000       0.258400000000000
   O              0.816300000000000       0.040400000000000       0.183700000000000
   O              0.183700000000000       0.959600000000000       0.816300000000000
   O              0.316300000000000       0.459600000000000       0.683700000000000
   O              0.683700000000000       0.540400000000000       0.316300000000000
   Cu             0.000000000000000       0.000000000000000       0.000000000000000 SPIN= 1.000
   Cu             0.500000000000000       0.500000000000000       0.500000000000000 SPIN=-1.000
   La             0.638400000000000       0.991700000000000       0.361600000000000
   La             0.361600000000000       0.008300000000000       0.638400000000000
   La             0.138400000000000       0.508300000000000       0.861600000000000
   La             0.861600000000000       0.491700000000000       0.138400000000000
%ENDBLOCK positions_frac

FIX_COM : true

%BLOCK hubbard_u
   EV
   Cu      d:6.000000
%ENDBLOCK hubbard_u

QUANTISATION_AXIS :     1.000000    0.000000    1.000000

%BLOCK species_pot
   O       o_pbesol_v1.2.uspp.F.UPF
   Cu      cu_pbesol_v1.2.uspp.F.UPF
   La      la_pbesol_v1.uspp.F.UPF
%ENDBLOCK species_pot

SYMMETRY_TOL :     0.001000

%BLOCK symmetry_ops
# Symm. op. 1       E
          1.000000000000000       0.000000000000000      -0.000000000000000
          0.000000000000000       1.000000000000000       0.000000000000000
          0.000000000000000       0.000000000000000       1.000000000000000
          0.000000000000000       0.000000000000000       0.000000000000000
# Symm. op. 2       I
         -1.000000000000000       0.000000000000000       0.000000000000000
          0.000000000000000      -1.000000000000000       0.000000000000000
         -0.000000000000000       0.000000000000000      -1.000000000000000
          0.000000000000000       0.000000000000000       0.000000000000000
# Symm. op. 3       2
          1.000000000000000       0.000000000000000      -0.000000000000000
          0.000000000000000      -1.000000000000000       0.000000000000000
         -0.000000000000000       0.000000000000000      -1.000000000000000
          0.000000000000000       0.000000000000000       0.000000000000000
# Symm. op. 4       m
         -1.000000000000000       0.000000000000000       0.000000000000000
          0.000000000000000       1.000000000000000       0.000000000000000
          0.000000000000000       0.000000000000000       1.000000000000000
          0.000000000000000       0.000000000000000       0.000000000000000
%ENDBLOCK symmetry_ops

kpoint_mp_grid :    5   4   5

kpoint_mp_offset :        0.100000000000000       0.000000000000000       0.100000000000000

spectral_kpoint_mp_grid :   10   8  10

